c Reduced graph for R100_1g_1 generated by Cyril Grelier
p edge 99 506
e 1 4
e 1 5
e 1 9
e 1 14
e 1 18
e 1 28
e 1 29
e 1 34
e 1 37
e 1 40
e 1 42
e 1 48
e 1 51
e 1 62
e 1 67
e 1 75
e 1 81
e 1 84
e 1 92
e 1 93
e 2 4
e 2 6
e 2 13
e 2 22
e 2 26
e 2 27
e 2 47
e 2 48
e 2 49
e 2 51
e 2 54
e 2 64
e 2 72
e 2 74
e 2 80
e 2 83
e 2 85
e 2 86
e 3 4
e 3 5
e 3 7
e 3 8
e 3 11
e 3 14
e 3 18
e 3 22
e 3 35
e 3 38
e 3 43
e 3 48
e 3 51
e 3 66
e 3 80
e 3 83
e 3 85
e 3 96
e 4 13
e 4 14
e 4 18
e 4 20
e 4 24
e 4 27
e 4 34
e 4 40
e 4 47
e 4 59
e 4 60
e 4 74
e 4 78
e 4 79
e 5 11
e 5 19
e 5 20
e 5 29
e 5 39
e 5 42
e 5 45
e 5 46
e 5 55
e 5 60
e 5 78
e 5 84
e 5 94
e 5 97
e 6 8
e 6 13
e 6 16
e 6 18
e 6 30
e 6 39
e 6 41
e 6 47
e 6 56
e 6 62
e 6 64
e 6 67
e 6 77
e 6 84
e 6 90
e 7 9
e 7 10
e 7 12
e 7 15
e 7 30
e 7 34
e 7 35
e 7 37
e 7 38
e 7 44
e 7 68
e 7 70
e 7 76
e 7 88
e 7 89
e 8 25
e 8 33
e 8 45
e 8 51
e 8 55
e 8 63
e 8 67
e 8 68
e 8 70
e 8 72
e 8 79
e 8 80
e 8 94
e 9 15
e 9 17
e 9 19
e 9 34
e 9 38
e 9 57
e 9 59
e 9 61
e 9 70
e 9 71
e 9 86
e 9 92
e 9 93
e 10 18
e 10 23
e 10 27
e 10 32
e 10 37
e 10 42
e 10 45
e 10 51
e 10 53
e 10 58
e 10 61
e 10 63
e 10 68
e 10 90
e 11 26
e 11 35
e 11 43
e 11 44
e 11 46
e 11 47
e 11 49
e 11 54
e 11 61
e 11 66
e 11 74
e 11 83
e 11 87
e 12 21
e 12 24
e 12 26
e 12 28
e 12 30
e 12 33
e 12 34
e 12 39
e 12 45
e 12 48
e 12 51
e 12 58
e 12 77
e 12 99
e 13 24
e 13 25
e 13 36
e 13 38
e 13 41
e 13 49
e 13 55
e 13 61
e 13 75
e 13 82
e 13 84
e 14 20
e 14 21
e 14 41
e 14 44
e 14 47
e 14 50
e 14 52
e 14 58
e 14 60
e 14 62
e 14 76
e 15 18
e 15 19
e 15 20
e 15 38
e 15 49
e 15 52
e 15 53
e 15 63
e 15 71
e 15 75
e 15 78
e 15 88
e 16 18
e 16 24
e 16 26
e 16 36
e 16 38
e 16 60
e 16 61
e 16 62
e 16 67
e 16 69
e 16 73
e 16 91
e 17 23
e 17 32
e 17 52
e 17 53
e 17 54
e 17 56
e 17 62
e 17 67
e 17 70
e 17 81
e 17 86
e 17 97
e 18 20
e 18 21
e 18 33
e 18 46
e 18 67
e 18 77
e 19 30
e 19 36
e 19 37
e 19 51
e 19 61
e 19 65
e 19 68
e 19 69
e 19 72
e 19 95
e 20 22
e 20 23
e 20 54
e 20 57
e 20 64
e 20 79
e 20 80
e 20 84
e 21 31
e 21 32
e 21 36
e 21 49
e 21 55
e 21 77
e 21 82
e 21 87
e 21 96
e 22 23
e 22 29
e 22 32
e 22 35
e 22 52
e 22 57
e 22 60
e 22 65
e 22 76
e 23 39
e 23 41
e 23 50
e 23 53
e 23 69
e 23 75
e 23 91
e 23 97
e 24 25
e 24 27
e 24 38
e 24 50
e 24 52
e 24 55
e 24 64
e 24 70
e 25 29
e 25 31
e 25 32
e 25 53
e 25 61
e 25 76
e 25 85
e 25 88
e 25 95
e 26 38
e 26 42
e 26 54
e 26 63
e 26 65
e 26 74
e 26 95
e 26 97
e 27 36
e 27 50
e 27 54
e 27 56
e 27 65
e 27 84
e 27 88
e 27 94
e 28 31
e 28 39
e 28 40
e 28 52
e 28 56
e 28 65
e 28 66
e 28 86
e 28 89
e 28 92
e 29 31
e 29 39
e 29 46
e 29 54
e 29 56
e 29 57
e 29 62
e 29 90
e 30 33
e 30 37
e 30 40
e 30 42
e 30 58
e 30 74
e 30 91
e 31 32
e 31 36
e 31 46
e 31 57
e 31 59
e 31 69
e 31 76
e 32 50
e 32 59
e 32 69
e 32 73
e 32 93
e 33 36
e 33 43
e 33 49
e 33 74
e 33 86
e 33 92
e 33 98
e 34 45
e 34 50
e 34 53
e 34 81
e 34 84
e 34 87
e 35 42
e 35 47
e 35 48
e 35 68
e 35 76
e 35 80
e 35 98
e 36 43
e 36 44
e 36 48
e 36 68
e 37 40
e 37 52
e 37 56
e 37 60
e 37 61
e 37 63
e 38 43
e 38 71
e 38 85
e 39 43
e 39 57
e 39 60
e 39 73
e 39 94
e 40 44
e 40 59
e 40 63
e 40 72
e 40 78
e 40 88
e 41 42
e 41 55
e 41 58
e 41 71
e 41 74
e 41 76
e 41 83
e 42 49
e 42 51
e 42 91
e 43 47
e 43 48
e 43 82
e 43 91
e 44 46
e 44 47
e 44 62
e 44 66
e 44 78
e 45 48
e 45 64
e 45 75
e 45 77
e 45 93
e 46 50
e 46 51
e 46 53
e 46 97
e 47 93
e 47 95
e 48 55
e 48 73
e 49 55
e 49 58
e 49 72
e 50 53
e 50 81
e 50 85
e 51 77
e 52 70
e 52 81
e 52 96
e 53 59
e 53 64
e 54 56
e 54 59
e 54 98
e 55 74
e 56 67
e 56 87
e 57 66
e 57 86
e 57 99
e 58 65
e 58 78
e 58 81
e 59 64
e 59 76
e 60 72
e 60 96
e 61 79
e 62 79
e 62 88
e 63 69
e 63 79
e 63 81
e 64 68
e 64 82
e 65 71
e 65 75
e 65 77
e 66 78
e 66 87
e 66 90
e 66 95
e 67 71
e 67 82
e 68 83
e 68 85
e 69 87
e 69 88
e 69 89
e 70 89
e 70 91
e 70 92
e 71 73
e 71 89
e 72 75
e 72 89
e 73 75
e 73 80
e 73 85
e 77 94
e 78 79
e 79 93
e 80 82
e 80 87
e 82 99
e 83 94
e 83 98
e 86 90
e 90 92
e 95 96
